(set-logic QF_FPABV)
(declare-fun b9 () (_ FP 11 53))
(declare-fun b44 () (_ FP 11 53))
(declare-fun b30 () (_ FP 11 53))
(declare-fun b37 () (_ FP 11 53))
(declare-fun b34 () (_ FP 11 53))
(declare-fun b54 () (_ FP 11 53))
(declare-fun b51 () (_ FP 11 53))
(declare-fun b41 () (_ FP 11 53))
(declare-fun b29 () (_ FP 11 53))
(declare-fun b11 () (_ FP 11 53))
(declare-fun b13 () (_ FP 11 53))
(define-fun .3 () RoundingMode roundNearestTiesToEven)
(define-fun .9 () (_ FP 11 53) b13)
(define-fun .10 () (_ FP 11 53) b9)
(define-fun .11 () (_ FP 11 53) (+ .3 .9 .10))
(define-fun .12 () (_ FP 11 53) b11)
(define-fun .13 () Bool (< .12 .11))
(define-fun .14 () Bool (<= .10 .12))
(define-fun .15 () Bool (and .13 .14))
(define-fun .16 () (_ FP 11 53) b29)
(define-fun .17 () (_ FP 11 53) b34)
(define-fun .18 () Bool (<= .16 .17))
(define-fun .19 () Bool (and .15 .18))
(define-fun .20 () (_ FP 11 53) b37)
(define-fun .21 () Bool (<= .20 .16))
(define-fun .22 () Bool (and .19 .21))
(define-fun .23 () (_ FP 11 53) b41)
(define-fun .24 () Bool (<= .10 .23))
(define-fun .25 () Bool (and .22 .24))
(define-fun .26 () (_ FP 11 53) b44)
(define-fun .27 () Bool (<= .26 .10))
(define-fun .28 () Bool (and .25 .27))
(define-fun .29 () (_ FP 11 53) b30)
(define-fun .30 () Bool (<= .29 .23))
(define-fun .31 () Bool (and .28 .30))
(define-fun .32 () Bool (<= .26 .29))
(define-fun .33 () Bool (and .31 .32))
(define-fun .34 () (_ FP 11 53) b51)
(define-fun .35 () Bool (<= .9 .34))
(define-fun .36 () Bool (and .33 .35))
(define-fun .37 () (_ FP 11 53) b54)
(define-fun .38 () Bool (<= .37 .9))
(define-fun .39 () Bool (and .36 .38))
(assert .39)
(check-sat)
